; benchmark generated from python API
(set-info :status unknown)
(declare-fun syscall_stub_newfstatat_83_64 () (_ BitVec 64))
(declare-fun mem_c0000f45_79_992 () (_ BitVec 992))
(declare-fun mem_c0001010_98_32 () (_ BitVec 32))
(declare-fun mem_4800102_209_64 () (_ BitVec 64))
(declare-fun mem_fffffffffffffff0_234_64 () (_ BitVec 64))
(declare-fun mem_ffffffffffff0000_268_64 () (_ BitVec 64))
(declare-fun mem_fffffffffe000000_311_64 () (_ BitVec 64))
(declare-fun mem_fffffffffe000010_310_32 () (_ BitVec 32))
(declare-fun mem_ffffffffffff0010_267_32 () (_ BitVec 32))
(declare-fun mem_0_233_32 () (_ BitVec 32))
(declare-fun mem_4800112_208_32 () (_ BitVec 32))
(assert
 (let ((?x47 ((_ extract 31 0) syscall_stub_newfstatat_83_64)))
 (let (($x52 (bvule ?x47 (_ bv4294963200 32))))
 (not $x52))))
(assert
 (let ((?x2189 ((_ extract 900 900) mem_c0000f45_79_992)))
 (= (_ bv0 1) ?x2189)))
(assert
 (let ((?x3699 ((_ extract 891 891) mem_c0000f45_79_992)))
 (let (($x4297 (= (_ bv0 1) ?x3699)))
 (not $x4297))))
(assert
 (let ((?x644 ((_ extract 647 640) mem_c0000f45_79_992)))
 (let ((?x3676 ((_ extract 639 632) mem_c0000f45_79_992)))
 (let ((?x4549 ((_ extract 631 624) mem_c0000f45_79_992)))
 (let ((?x636 ((_ extract 623 616) mem_c0000f45_79_992)))
 (let ((?x672 ((_ extract 615 608) mem_c0000f45_79_992)))
 (let ((?x784 ((_ extract 607 600) mem_c0000f45_79_992)))
 (let ((?x18745 (concat (concat ((_ extract 591 584) mem_c0000f45_79_992) ((_ extract 599 592) mem_c0000f45_79_992)) ?x784)))
 (let ((?x23636 (concat (concat (concat (concat (concat ?x18745 ?x672) ?x636) ?x4549) ?x3676) ?x644)))
 (let ((?x3977 ((_ extract 583 576) mem_c0000f45_79_992)))
 (let ((?x935 ((_ extract 575 568) mem_c0000f45_79_992)))
 (let ((?x4611 ((_ extract 567 560) mem_c0000f45_79_992)))
 (let ((?x3400 ((_ extract 559 552) mem_c0000f45_79_992)))
 (let ((?x3784 ((_ extract 551 544) mem_c0000f45_79_992)))
 (let ((?x3913 ((_ extract 543 536) mem_c0000f45_79_992)))
 (let ((?x12701 (concat (concat ((_ extract 527 520) mem_c0000f45_79_992) ((_ extract 535 528) mem_c0000f45_79_992)) ?x3913)))
 (let ((?x13066 (concat (concat (concat (concat (concat ?x12701 ?x3784) ?x3400) ?x4611) ?x935) ?x3977)))
 (bvule ?x13066 ?x23636))))))))))))))))))
(assert
 (let ((?x8705 ((_ extract 888 888) mem_c0000f45_79_992)))
 (= (_ bv0 1) ?x8705)))
(assert
 (let ((?x2427 ((_ extract 775 768) mem_c0000f45_79_992)))
 (let ((?x2419 ((_ extract 767 760) mem_c0000f45_79_992)))
 (let ((?x2429 ((_ extract 759 752) mem_c0000f45_79_992)))
 (let ((?x2417 ((_ extract 751 744) mem_c0000f45_79_992)))
 (let ((?x2410 ((_ extract 743 736) mem_c0000f45_79_992)))
 (let ((?x2411 ((_ extract 735 728) mem_c0000f45_79_992)))
 (let ((?x4124 (concat (concat ((_ extract 719 712) mem_c0000f45_79_992) ((_ extract 727 720) mem_c0000f45_79_992)) ?x2411)))
 (let ((?x3823 (concat (concat (concat (concat (concat ?x4124 ?x2410) ?x2417) ?x2429) ?x2419) ?x2427)))
 (let ((?x3977 ((_ extract 583 576) mem_c0000f45_79_992)))
 (let ((?x935 ((_ extract 575 568) mem_c0000f45_79_992)))
 (let ((?x4611 ((_ extract 567 560) mem_c0000f45_79_992)))
 (let ((?x3400 ((_ extract 559 552) mem_c0000f45_79_992)))
 (let ((?x3784 ((_ extract 551 544) mem_c0000f45_79_992)))
 (let ((?x3913 ((_ extract 543 536) mem_c0000f45_79_992)))
 (let ((?x12701 (concat (concat ((_ extract 527 520) mem_c0000f45_79_992) ((_ extract 535 528) mem_c0000f45_79_992)) ?x3913)))
 (let ((?x13066 (concat (concat (concat (concat (concat ?x12701 ?x3784) ?x3400) ?x4611) ?x935) ?x3977)))
 (bvule ?x13066 ?x3823))))))))))))))))))
(assert
 (let ((?x3977 ((_ extract 583 576) mem_c0000f45_79_992)))
 (let ((?x935 ((_ extract 575 568) mem_c0000f45_79_992)))
 (let ((?x4611 ((_ extract 567 560) mem_c0000f45_79_992)))
 (let ((?x3400 ((_ extract 559 552) mem_c0000f45_79_992)))
 (let ((?x3784 ((_ extract 551 544) mem_c0000f45_79_992)))
 (let ((?x3913 ((_ extract 543 536) mem_c0000f45_79_992)))
 (let ((?x12701 (concat (concat ((_ extract 527 520) mem_c0000f45_79_992) ((_ extract 535 528) mem_c0000f45_79_992)) ?x3913)))
 (let ((?x13066 (concat (concat (concat (concat (concat ?x12701 ?x3784) ?x3400) ?x4611) ?x935) ?x3977)))
 (let ((?x2427 ((_ extract 775 768) mem_c0000f45_79_992)))
 (let ((?x2419 ((_ extract 767 760) mem_c0000f45_79_992)))
 (let ((?x2429 ((_ extract 759 752) mem_c0000f45_79_992)))
 (let ((?x2417 ((_ extract 751 744) mem_c0000f45_79_992)))
 (let ((?x2410 ((_ extract 743 736) mem_c0000f45_79_992)))
 (let ((?x2411 ((_ extract 735 728) mem_c0000f45_79_992)))
 (let ((?x4124 (concat (concat ((_ extract 719 712) mem_c0000f45_79_992) ((_ extract 727 720) mem_c0000f45_79_992)) ?x2411)))
 (let ((?x3823 (concat (concat (concat (concat (concat ?x4124 ?x2410) ?x2417) ?x2429) ?x2419) ?x2427)))
 (bvule ?x3823 ?x13066))))))))))))))))))
(assert
 (let ((?x11985 ((_ extract 135 128) mem_c0000f45_79_992)))
 (= (_ bv2 8) ?x11985)))
(assert
 (let ((?x13685 ((_ extract 127 120) mem_c0000f45_79_992)))
 (= (_ bv1 8) ?x13685)))
(assert
 (let ((?x13262 ((_ extract 119 112) mem_c0000f45_79_992)))
 (= (_ bv128 8) ?x13262)))
(assert
 (let ((?x13139 ((_ extract 111 104) mem_c0000f45_79_992)))
 (= (_ bv4 8) ?x13139)))
(assert
 (let ((?x12096 ((_ extract 103 96) mem_c0000f45_79_992)))
 (= (_ bv0 8) ?x12096)))
(assert
 (let ((?x12093 ((_ extract 95 88) mem_c0000f45_79_992)))
 (= (_ bv0 8) ?x12093)))
(assert
 (let ((?x12627 ((_ extract 87 80) mem_c0000f45_79_992)))
 (= (_ bv0 8) ?x12627)))
(assert
 (let ((?x12622 ((_ extract 79 72) mem_c0000f45_79_992)))
 (= (_ bv0 8) ?x12622)))
(assert
 (let ((?x2357 ((_ extract 815 808) mem_c0000f45_79_992)))
 (let ((?x2417 ((_ extract 751 744) mem_c0000f45_79_992)))
 (let (($x1690 (= ?x2417 ?x2357)))
 (let (($x3670 (not $x1690)))
 (let ((?x2362 ((_ extract 807 800) mem_c0000f45_79_992)))
 (let ((?x2410 ((_ extract 743 736) mem_c0000f45_79_992)))
 (let (($x1703 (= ?x2410 ?x2362)))
 (let (($x3664 (not $x1703)))
 (let ((?x2345 ((_ extract 783 776) mem_c0000f45_79_992)))
 (let ((?x2400 ((_ extract 719 712) mem_c0000f45_79_992)))
 (let (($x1701 (= ?x2400 ?x2345)))
 (let (($x3671 (not $x1701)))
 (let ((?x2363 ((_ extract 799 792) mem_c0000f45_79_992)))
 (let ((?x2411 ((_ extract 735 728) mem_c0000f45_79_992)))
 (let (($x1704 (= ?x2411 ?x2363)))
 (let (($x3672 (not $x1704)))
 (let ((?x2346 ((_ extract 791 784) mem_c0000f45_79_992)))
 (let ((?x2401 ((_ extract 727 720) mem_c0000f45_79_992)))
 (let (($x1693 (= ?x2401 ?x2346)))
 (let (($x4136 (not $x1693)))
 (let ((?x2364 ((_ extract 831 824) mem_c0000f45_79_992)))
 (let ((?x2419 ((_ extract 767 760) mem_c0000f45_79_992)))
 (let (($x1155 (= ?x2419 ?x2364)))
 (let (($x4137 (not $x1155)))
 (let ((?x2374 ((_ extract 839 832) mem_c0000f45_79_992)))
 (let ((?x2427 ((_ extract 775 768) mem_c0000f45_79_992)))
 (let (($x1152 (= ?x2427 ?x2374)))
 (let (($x4139 (not $x1152)))
 (let ((?x2349 ((_ extract 823 816) mem_c0000f45_79_992)))
 (let ((?x2429 ((_ extract 759 752) mem_c0000f45_79_992)))
 (let (($x1714 (= ?x2429 ?x2349)))
 (let (($x4539 (not $x1714)))
 (let (($x6038 (or $x4539 $x4139 $x4137 $x4136 $x3672 $x3671 $x3664 $x3670)))
 (let (($x9215 (not $x6038)))
 (let ((?x4533 (concat (concat (concat (concat (concat ?x2345 ?x2346) ?x2363) ?x2362) ?x2357) ?x2349)))
 (let ((?x4215 (concat ?x4533 ?x2364)))
 (let ((?x3812 (concat ?x4215 ?x2374)))
 (let ((?x3646 (bvmul (_ bv18446744073709551615 64) ?x3812)))
 (let ((?x3809 (concat (concat (concat (concat (concat ?x2400 ?x2401) ?x2411) ?x2410) ?x2417) ?x2429)))
 (let ((?x3823 (concat (concat ?x3809 ?x2419) ?x2427)))
 (let ((?x3827 (bvadd ?x3823 ?x3646)))
 (let ((?x2482 ((_ extract 63 63) ?x3827)))
 (let (($x2285 (= (_ bv1 1) ?x2482)))
 (or $x2285 $x9215)))))))))))))))))))))))))))))))))))))))))))))
(assert
 (= (_ bv0 32) mem_c0001010_98_32))
(assert
 (= (_ bv18446744073709551600 64) mem_4800102_209_64))
(assert
 (= (_ bv18446744073709486080 64) mem_fffffffffffffff0_234_64))
(assert
 (= (_ bv18446744073675997184 64) mem_ffffffffffff0000_268_64))
(assert
 (= (_ bv0 64) mem_fffffffffe000000_311_64))
(assert
 (let ((?x14859 (concat ((_ extract 7 0) ((_ extract 327 264) mem_c0000f45_79_992)) ((_ extract 15 8) ((_ extract 327 264) mem_c0000f45_79_992)))))
 (let ((?x14841 (concat (concat ?x14859 ((_ extract 23 16) ((_ extract 327 264) mem_c0000f45_79_992))) ((_ extract 31 24) ((_ extract 327 264) mem_c0000f45_79_992)))))
 (let ((?x14995 (concat (concat ?x14841 ((_ extract 39 32) ((_ extract 327 264) mem_c0000f45_79_992))) ((_ extract 47 40) ((_ extract 327 264) mem_c0000f45_79_992)))))
 (let ((?x14843 (concat (concat ?x14995 ((_ extract 55 48) ((_ extract 327 264) mem_c0000f45_79_992))) ((_ extract 63 56) ((_ extract 327 264) mem_c0000f45_79_992)))))
 (let ((?x48842 (concat ((_ extract 7 0) ((_ extract 199 136) mem_c0000f45_79_992)) ((_ extract 15 8) ((_ extract 199 136) mem_c0000f45_79_992)))))
 (let ((?x48584 (concat (concat ?x48842 ((_ extract 23 16) ((_ extract 199 136) mem_c0000f45_79_992))) ((_ extract 31 24) ((_ extract 199 136) mem_c0000f45_79_992)))))
 (let ((?x47537 (concat (concat ?x48584 ((_ extract 39 32) ((_ extract 199 136) mem_c0000f45_79_992))) ((_ extract 47 40) ((_ extract 199 136) mem_c0000f45_79_992)))))
 (let ((?x49624 (concat (concat ?x47537 ((_ extract 55 48) ((_ extract 199 136) mem_c0000f45_79_992))) ((_ extract 63 56) ((_ extract 199 136) mem_c0000f45_79_992)))))
 (let ((?x47949 (bvsub ?x49624 ?x14843)))
 (let ((?x793017 ((_ extract 31 31) mem_fffffffffe000010_310_32)))
 (let ((?x793606 (concat (concat (concat (concat (concat ?x793017 ?x793017) ?x793017) ?x793017) ?x793017) ?x793017)))
 (let ((?x789889 (concat (concat (concat (concat (concat ?x793606 ?x793017) ?x793017) ?x793017) ?x793017) ?x793017)))
 (let ((?x794017 (concat (concat (concat (concat (concat ?x789889 ?x793017) ?x793017) ?x793017) ?x793017) ?x793017)))
 (let ((?x787339 (concat (concat (concat (concat (concat ?x794017 ?x793017) ?x793017) ?x793017) ?x793017) ?x793017)))
 (let ((?x790679 (concat (concat (concat (concat (concat ?x787339 ?x793017) ?x793017) ?x793017) ?x793017) ?x793017)))
 (let ((?x793337 (concat (concat (concat (concat (concat ?x790679 ?x793017) ?x793017) ?x793017) ?x793017) ?x793017)))
 (let ((?x785188 (concat (concat ?x793337 ?x793017) mem_fffffffffe000010_310_32)))
 (let ((?x285557 ((_ extract 31 31) mem_ffffffffffff0010_267_32)))
 (let ((?x464974 (concat (concat (concat (concat (concat ?x285557 ?x285557) ?x285557) ?x285557) ?x285557) ?x285557)))
 (let ((?x463882 (concat (concat (concat (concat (concat ?x464974 ?x285557) ?x285557) ?x285557) ?x285557) ?x285557)))
 (let ((?x457861 (concat (concat (concat (concat (concat ?x463882 ?x285557) ?x285557) ?x285557) ?x285557) ?x285557)))
 (let ((?x468340 (concat (concat (concat (concat (concat ?x457861 ?x285557) ?x285557) ?x285557) ?x285557) ?x285557)))
 (let ((?x468886 (concat (concat (concat (concat (concat ?x468340 ?x285557) ?x285557) ?x285557) ?x285557) ?x285557)))
 (let ((?x467881 (concat (concat (concat (concat (concat ?x468886 ?x285557) ?x285557) ?x285557) ?x285557) ?x285557)))
 (let ((?x468477 (concat (concat ?x467881 ?x285557) mem_ffffffffffff0010_267_32)))
 (let ((?x139495 ((_ extract 31 31) mem_0_233_32)))
 (let ((?x291997 (concat (concat (concat (concat (concat ?x139495 ?x139495) ?x139495) ?x139495) ?x139495) ?x139495)))
 (let ((?x292436 (concat (concat (concat (concat (concat ?x291997 ?x139495) ?x139495) ?x139495) ?x139495) ?x139495)))
 (let ((?x291743 (concat (concat (concat (concat (concat ?x292436 ?x139495) ?x139495) ?x139495) ?x139495) ?x139495)))
 (let ((?x282445 (concat (concat (concat (concat (concat ?x291743 ?x139495) ?x139495) ?x139495) ?x139495) ?x139495)))
 (let ((?x290890 (concat (concat (concat (concat (concat ?x282445 ?x139495) ?x139495) ?x139495) ?x139495) ?x139495)))
 (let ((?x286440 (concat (concat (concat (concat (concat ?x290890 ?x139495) ?x139495) ?x139495) ?x139495) ?x139495)))
 (let ((?x285992 (concat (concat ?x286440 ?x139495) mem_0_233_32)))
 (let ((?x102888 ((_ extract 31 31) mem_4800112_208_32)))
 (let ((?x139207 (concat (concat (concat (concat (concat ?x102888 ?x102888) ?x102888) ?x102888) ?x102888) ?x102888)))
 (let ((?x145835 (concat (concat (concat (concat (concat ?x139207 ?x102888) ?x102888) ?x102888) ?x102888) ?x102888)))
 (let ((?x139193 (concat (concat (concat (concat (concat ?x145835 ?x102888) ?x102888) ?x102888) ?x102888) ?x102888)))
 (let ((?x140835 (concat (concat (concat (concat (concat ?x139193 ?x102888) ?x102888) ?x102888) ?x102888) ?x102888)))
 (let ((?x140862 (concat (concat (concat (concat (concat ?x140835 ?x102888) ?x102888) ?x102888) ?x102888) ?x102888)))
 (let ((?x140895 (concat (concat (concat (concat (concat ?x140862 ?x102888) ?x102888) ?x102888) ?x102888) ?x102888)))
 (let ((?x140907 (concat (concat ?x140895 ?x102888) mem_4800112_208_32)))
 (let ((?x12088 ((_ extract 455 448) mem_c0000f45_79_992)))
 (let ((?x13251 ((_ extract 447 440) mem_c0000f45_79_992)))
 (let ((?x12193 ((_ extract 439 432) mem_c0000f45_79_992)))
 (let ((?x13253 ((_ extract 431 424) mem_c0000f45_79_992)))
 (let ((?x12878 ((_ extract 423 416) mem_c0000f45_79_992)))
 (let ((?x13184 ((_ extract 415 408) mem_c0000f45_79_992)))
 (let ((?x62383 (concat (concat ((_ extract 399 392) mem_c0000f45_79_992) ((_ extract 407 400) mem_c0000f45_79_992)) ?x13184)))
 (let ((?x63263 (concat (concat (concat (concat (concat ?x62383 ?x12878) ?x13253) ?x12193) ?x13251) ?x12088)))
 (let ((?x29589 (bvmul (_ bv18446744073709551615 64) ?x63263)))
 (let ((?x2427 ((_ extract 775 768) mem_c0000f45_79_992)))
 (let ((?x2419 ((_ extract 767 760) mem_c0000f45_79_992)))
 (let ((?x2429 ((_ extract 759 752) mem_c0000f45_79_992)))
 (let ((?x2417 ((_ extract 751 744) mem_c0000f45_79_992)))
 (let ((?x2410 ((_ extract 743 736) mem_c0000f45_79_992)))
 (let ((?x2411 ((_ extract 735 728) mem_c0000f45_79_992)))
 (let ((?x4124 (concat (concat ((_ extract 719 712) mem_c0000f45_79_992) ((_ extract 727 720) mem_c0000f45_79_992)) ?x2411)))
 (let ((?x3823 (concat (concat (concat (concat (concat ?x4124 ?x2410) ?x2417) ?x2429) ?x2419) ?x2427)))
 (let ((?x28162 (bvadd ?x3823 ?x29589)))
 (let (($x140910 (bvsle ?x28162 ?x140907)))
 (let ((?x140919 (ite $x140910 ?x28162 ?x140907)))
 (let (($x285137 (bvsle ?x140919 ?x285992)))
 (let ((?x283867 (ite $x285137 ?x140919 ?x285992)))
 (let (($x467861 (bvsle ?x283867 ?x468477)))
 (let ((?x467844 (ite $x467861 ?x283867 ?x468477)))
 (let (($x790716 (bvsle ?x467844 ?x785188)))
 (let ((?x790233 (ite $x790716 ?x467844 ?x785188)))
 (let ((?x62547 (bvsub ?x3823 ?x63263)))
 (let ((?x1401392 (bvsub ?x62547 ?x790233)))
 (bvule ?x1401392 ?x47949)))))))))))))))))))))))))))))))))))))))))))))))))))))))))))))))))))))))
(minimize mem_fffffffffffffff0_234_64)
(maximize mem_4800102_209_64)
(maximize syscall_stub_newfstatat_83_64)
(maximize mem_c0000f45_79_992)
(minimize mem_fffffffffe000010_310_32)
(minimize mem_0_233_32)
(minimize mem_4800102_209_64)
(maximize mem_c0001010_98_32)
(minimize mem_4800112_208_32)
(maximize mem_fffffffffffffff0_234_64)
(minimize syscall_stub_newfstatat_83_64)
(maximize mem_fffffffffe000010_310_32)
(minimize mem_c0000f45_79_992)
(maximize mem_ffffffffffff0010_267_32)
(maximize mem_fffffffffe000000_311_64)
(minimize mem_c0001010_98_32)
(maximize mem_4800112_208_32)
(check-sat)
(get-objectives)
